\ This file has been generated by DOcplex
\ ENCODING=ISO-8859-1
\Problem name: random_problem.lp

Minimize
 obj: x0 - 8 x3 + 7 x5 - 6 x6 + 3 x7 + 6 x9 - 5 x13 - 3 x14 - 7 x16 - 6 x17
      + 9 x18 - 6 x19 + 9 x25 + 4 x26 + 5 x28 + 2 x30 + 4 x31 + 5 x32 + 6 x36
      + 5 x39 + [ 4 x0^2 + 6 x0*x1 + 8 x0*x3 - 2 x0*x4 + 10 x0*x6 - 16 x0*x7
      + 18 x0*x9 + 2 x0*x11 - 18 x0*x12 - 16 x0*x13 - 20 x0*x15 - 14 x0*x18
      - 6 x0*x19 - 10 x0*x23 + 14 x0*x26 - 20 x0*x28 - 12 x0*x32 + 8 x0*x36
      - 4 x1*x2 - 4 x1*x3 + 14 x1*x12 - 18 x1*x13 + 8 x1*x18 + 10 x1*x19
      - 8 x1*x20 - 2 x1*x22 + 16 x1*x23 - 20 x1*x25 - 14 x1*x28 + 4 x1*x31
      + 14 x1*x32 + 14 x1*x33 - 6 x1*x34 - 16 x1*x35 - 6 x1*x38 + 4 x2^2
      + 10 x2*x4 - 6 x2*x5 + 10 x2*x8 - 8 x2*x10 + 4 x2*x11 + 12 x2*x12
      + 18 x2*x19 + 16 x2*x22 - 14 x2*x23 - 20 x2*x27 + 18 x2*x31 - 8 x2*x32
      + 14 x2*x33 - 6 x2*x35 + 14 x2*x39 - 8 x3*x5 + 14 x3*x7 - 14 x3*x10
      + 6 x3*x13 - 18 x3*x16 - 8 x3*x18 - 12 x3*x19 - 14 x3*x20 + 10 x3*x22
      - 16 x3*x23 - 10 x3*x28 + 10 x3*x29 - 2 x3*x34 - 20 x3*x35 + 16 x3*x38
      - 4 x4^2 - 14 x4*x6 - 6 x4*x8 - 4 x4*x10 + 2 x4*x11 + 4 x4*x14 - 14 x4*x15
      - 2 x4*x16 + 16 x4*x17 + 2 x4*x18 - 8 x4*x19 + 10 x4*x20 - 8 x4*x21
      + 2 x4*x23 + 8 x4*x24 + 4 x4*x25 + 4 x4*x27 - 4 x4*x28 + 4 x4*x29
      + 2 x4*x30 + 8 x4*x33 - 4 x4*x34 - 16 x4*x35 - 12 x4*x38 + 10 x5*x10
      - 14 x5*x13 + 4 x5*x15 - 10 x5*x17 + 2 x5*x18 + 16 x5*x19 - 16 x5*x20
      + 18 x5*x23 - 6 x5*x26 - 18 x5*x28 + 8 x5*x29 + 18 x5*x30 + 2 x5*x31
      + 8 x5*x34 - 4 x5*x35 + 12 x5*x36 + 6 x5*x38 - 12 x5*x39 + 16 x6^2
      - 12 x6*x7 + 6 x6*x11 + 16 x6*x13 + 8 x6*x18 - 10 x6*x22 - 2 x6*x23
      - 12 x6*x24 + 8 x6*x27 - 20 x6*x28 + 12 x6*x30 - 4 x6*x31 + 4 x6*x32
      - 10 x6*x33 + 18 x6*x34 + 18 x6*x36 - 10 x6*x37 - 6 x6*x38 + 4 x7^2
      + 8 x7*x8 - 18 x7*x9 + 6 x7*x10 + 16 x7*x12 - 16 x7*x18 + 10 x7*x19
      - 4 x7*x24 + 2 x7*x26 + 10 x7*x27 + 8 x7*x29 + 4 x7*x30 - 6 x7*x31
      + 16 x7*x34 + 12 x7*x36 + 2 x7*x39 + 18 x8^2 - 18 x8*x9 - 16 x8*x10
      - 10 x8*x13 + 10 x8*x14 - 14 x8*x15 - 18 x8*x18 + 8 x8*x23 - 6 x8*x24
      - 2 x8*x25 + 8 x8*x27 + 4 x8*x28 - 20 x8*x30 + 8 x8*x35 - 20 x8*x37
      + 12 x8*x38 + 10 x9^2 + 14 x9*x14 + 2 x9*x18 - 2 x9*x19 - 2 x9*x20
      + 8 x9*x22 - 8 x9*x23 - 20 x9*x24 + 8 x9*x27 - 4 x9*x28 - 16 x9*x30
      + 6 x9*x32 + 16 x9*x35 - 8 x9*x37 + 4 x10^2 - 12 x10*x11 - 2 x10*x12
      + 8 x10*x14 + 10 x10*x20 - 8 x10*x24 - 14 x10*x25 - 8 x10*x26 - 12 x10*x29
      + 8 x10*x31 + 4 x10*x33 - 4 x10*x34 - 12 x10*x36 - 10 x10*x37 + 8 x10*x38
      - 18 x11^2 - 16 x11*x12 + 6 x11*x13 - 8 x11*x15 + 14 x11*x16 + 16 x11*x20
      - 8 x11*x25 - 6 x11*x29 - 4 x11*x30 - 14 x11*x33 + 18 x11*x36 - 12 x11*x37
      + 8 x12^2 + 4 x12*x13 - 4 x12*x18 - 20 x12*x20 + 14 x12*x21 - 12 x12*x23
      + 6 x12*x27 - 4 x12*x29 - 8 x12*x30 + 14 x12*x31 + 12 x12*x32 + 6 x12*x36
      - 2 x12*x37 + 6 x13*x15 - 14 x13*x16 + 8 x13*x17 - 10 x13*x19 + 14 x13*x20
      + 16 x13*x24 + 10 x13*x28 + 2 x13*x29 - 10 x13*x30 + 12 x13*x32
      + 8 x13*x34 - 20 x13*x36 - 10 x13*x37 - 16 x13*x38 + 6 x13*x39 - 20 x14^2
      - 18 x14*x15 - 14 x14*x17 - 10 x14*x18 + 10 x14*x19 - 2 x14*x20
      - 10 x14*x22 - 12 x14*x23 + 12 x14*x24 + 4 x14*x25 + 18 x14*x26
      + 16 x14*x28 - 2 x14*x29 + 4 x14*x32 - 2 x14*x34 + 10 x14*x35 - 8 x14*x37
      + 4 x14*x38 + 8 x15*x16 - 8 x15*x19 - 2 x15*x21 - 2 x15*x24 - 18 x15*x26
      + 12 x15*x27 - 10 x15*x28 - 6 x15*x29 - 16 x15*x31 + 16 x15*x32
      - 8 x15*x33 - 12 x15*x34 - 2 x15*x35 - 14 x15*x36 - 12 x15*x37 + 2 x15*x38
      + 4 x15*x39 - 10 x16*x17 - 10 x16*x20 + 16 x16*x21 - 12 x16*x22
      + 12 x16*x23 + 4 x16*x24 + 6 x16*x25 + 8 x16*x26 + 6 x16*x28 + 14 x16*x29
      + 14 x16*x32 - 6 x16*x34 + 16 x16*x35 - 10 x16*x37 + 12 x16*x39 - 12 x17^2
      + 8 x17*x21 - 4 x17*x26 - 14 x17*x27 - 16 x17*x33 - 12 x17*x34 + 8 x17*x38
      + 2 x18*x19 - 20 x18*x20 - 16 x18*x21 + 14 x18*x23 - 2 x18*x24
      + 14 x18*x25 - 16 x18*x26 - 10 x18*x27 + 16 x18*x29 + 8 x18*x31
      - 4 x18*x33 + 14 x18*x34 - 14 x18*x39 + 16 x19*x21 + 8 x19*x22 + 8 x19*x24
      + 16 x19*x27 - 18 x19*x29 + 2 x19*x31 + 6 x19*x34 + 4 x19*x37 - 4 x19*x39
      + 12 x20^2 + 8 x20*x21 - 4 x20*x23 + 12 x20*x24 + 16 x20*x26 - 14 x20*x28
      - 16 x20*x31 + 16 x20*x33 + 12 x20*x34 + 16 x20*x35 - 8 x20*x36 + 6 x21^2
      - 16 x21*x22 + 2 x21*x25 + 4 x21*x26 - 18 x21*x29 + 10 x21*x33
      - 18 x21*x34 - 20 x21*x36 + 14 x21*x37 + 4 x21*x39 + 8 x22^2 - 4 x22*x25
      - 18 x22*x26 - 16 x22*x30 + 2 x22*x31 + 16 x22*x32 - 2 x22*x34
      + 18 x22*x36 + 12 x22*x37 + 2 x22*x39 + 14 x23*x24 - 4 x23*x26 - 8 x23*x34
      - 10 x23*x39 - 8 x24^2 - 16 x24*x27 + 12 x24*x32 - 4 x24*x34 + 4 x24*x36
      - 14 x24*x37 - 2 x25*x32 + 2 x25*x35 + 16 x25*x39 + 18 x26^2 - 10 x26*x30
      - 14 x26*x35 + 6 x26*x38 - 8 x27^2 - 10 x27*x32 - 10 x27*x33 - 14 x27*x39
      - 18 x28*x29 - 6 x28*x30 - 8 x28*x35 + 2 x29*x30 - 6 x29*x32 + 16 x29*x33
      - 10 x29*x36 + 4 x29*x37 + 2 x29*x38 - 6 x30*x31 + 14 x30*x33 + 14 x30*x35
      + 12 x30*x36 - 18 x30*x37 - 6 x30*x38 + 2 x30*x39 + 14 x31*x33 + 8 x31*x37
      + 4 x31*x39 - 8 x32^2 - 16 x32*x33 + 14 x32*x34 - 2 x32*x35 - 4 x32*x36
      - 8 x32*x37 - 16 x32*x39 - 16 x33^2 + 2 x33*x34 + 10 x33*x35 - 12 x33*x37
      + 8 x34*x38 - 6 x35^2 - 14 x35*x36 - 6 x35*x38 - 18 x36^2 - 10 x37*x38
      + 14 x38*x39 - 20 x39^2 ]/2
Subject To
 c0: x0 + x1 - 2 x2 + x3 - 2 x4 - 2 x5 - 2 x8 - x11 - x14 + x15 - x20 - x21
     + x24 + x25 + x27 - 2 x28 + x29 + 2 x31 - 2 x36 + x37 = -1
 c1: - x2 + x3 + x5 + x6 - 2 x8 - x9 - 2 x14 - 2 x15 - 2 x16 + x19 - x27 + 2 x28
     + 2 x29 + 2 x30 - 2 x31 + x32 + 2 x33 - 2 x35 + 2 x36 + x37 = -2
 c2: - x0 + x2 - 2 x6 - x8 - 2 x9 - x10 + 2 x13 + 2 x14 + 2 x15 - x16 + x17
     - 2 x18 + x21 - x23 - x27 - 2 x30 + 2 x31 + 2 x33 - 2 x34 - x36 = -2
 c3: x0 + x1 - x5 - 2 x6 - 2 x9 + x10 + 2 x11 - x13 - x17 - x19 + x21 + x22
     - 2 x24 - x25 + 2 x26 + x27 - x32 + 2 x34 + 2 x38 - 2 x39 = 0
 c4: 2 x0 + x1 + 2 x2 + 2 x3 - x6 + x8 - 2 x13 + 2 x14 - 2 x19 + 2 x20 + 2 x23
     - 2 x25 - 2 x26 - x27 + 2 x28 + x30 - x32 + x33 + 2 x34 + x39 = 0
 c5: x2 - 2 x4 + x5 + x6 - x8 + x9 - 2 x16 + 2 x19 - 2 x20 + 2 x21 + 2 x22 + x24
     - x26 - x27 - x28 - 2 x29 + x30 - x32 + x35 + 2 x38 = -1
 c6: - 2 x0 + 2 x4 + 2 x5 + 2 x6 - x7 + x8 - 2 x10 - x11 - 2 x15 - 2 x16 + x17
     - x18 - x20 + 2 x21 - x22 - x23 - 2 x24 - x29 + 2 x34 + x35 = -1
 c7: 2 x1 + x5 - x8 - 2 x9 + 2 x11 + x16 + x17 - 2 x18 - 2 x20 - 2 x21 + 2 x23
     - 2 x26 - x27 - 2 x28 + 2 x29 + x30 - x33 + x34 + 2 x37 + x38 = 0
 c8: - x1 + x4 + 2 x6 + x8 + 2 x12 + x13 + 2 x14 + x15 + x16 - 2 x17 + x19 - x20
     + x26 - x29 + x31 - x33 - x34 - x35 - 2 x36 - x37 = 1
 c9: - x3 - x4 + 2 x5 + x8 + x9 + 2 x10 - x11 + 2 x12 + 2 x13 - 2 x14 - 2 x15
     + x16 - 2 x18 + 2 x21 - 2 x24 - x29 - 2 x36 - 2 x37 + x38 + 2 x39 = 1

Bounds
 0 <= x0 <= 1
 0 <= x1 <= 1
 0 <= x2 <= 1
 0 <= x3 <= 1
 0 <= x4 <= 1
 0 <= x5 <= 1
 0 <= x6 <= 1
 0 <= x7 <= 1
 0 <= x8 <= 1
 0 <= x9 <= 1
 0 <= x10 <= 1
 0 <= x11 <= 1
 0 <= x12 <= 1
 0 <= x13 <= 1
 0 <= x14 <= 1
 0 <= x15 <= 1
 0 <= x16 <= 1
 0 <= x17 <= 1
 0 <= x18 <= 1
 0 <= x19 <= 1
 0 <= x20 <= 1
 0 <= x21 <= 1
 0 <= x22 <= 1
 0 <= x23 <= 1
 0 <= x24 <= 1
 0 <= x25 <= 1
 0 <= x26 <= 1
 0 <= x27 <= 1
 0 <= x28 <= 1
 0 <= x29 <= 1
 0 <= x30 <= 1
 0 <= x31 <= 1
 0 <= x32 <= 1
 0 <= x33 <= 1
 0 <= x34 <= 1
 0 <= x35 <= 1
 0 <= x36 <= 1
 0 <= x37 <= 1
 0 <= x38 <= 1
 0 <= x39 <= 1

Binaries
 x0 x1 x2 x3 x4 x5 x6 x7 x8 x9 x10 x11 x12 x13 x14 x15 x16 x17 x18 x19 x20 x21
 x22 x23 x24 x25 x26 x27 x28 x29 x30 x31 x32 x33 x34 x35 x36 x37 x38 x39
End
